p edges 221 1057
e 1 2
e 1 3
e 1 6
e 1 10
e 1 18
e 1 19
e 1 23
e 1 27
e 1 41
e 1 59
e 1 88
e 1 96
e 1 97
e 1 98
e 1 189
e 2 3
e 2 8
e 2 13
e 2 21
e 2 28
e 2 61
e 2 64
e 2 66
e 2 97
e 2 98
e 3 14
e 3 62
e 3 65
e 3 97
e 3 98
e 3 191
e 4 5
e 4 6
e 4 7
e 4 8
e 4 9
e 4 17
e 4 29
e 4 33
e 4 38
e 4 67
e 4 79
e 4 87
e 4 99
e 4 100
e 5 6
e 5 7
e 5 8
e 5 15
e 5 18
e 5 29
e 5 34
e 5 39
e 5 40
e 5 68
e 5 99
e 5 100
e 5 101
e 6 7
e 6 8
e 6 10
e 6 19
e 6 30
e 6 35
e 6 41
e 6 59
e 6 88
e 6 99
e 6 100
e 6 101
e 6 102
e 6 103
e 7 8
e 7 11
e 7 12
e 7 16
e 7 20
e 7 31
e 7 36
e 7 60
e 7 100
e 7 101
e 7 102
e 7 103
e 8 13
e 8 21
e 8 37
e 8 61
e 8 69
e 8 80
e 8 100
e 8 101
e 8 102
e 8 103
e 9 10
e 9 11
e 9 17
e 9 29
e 9 40
e 9 45
e 9 71
e 9 82
e 9 87
e 9 104
e 9 105
e 10 11
e 10 40
e 10 41
e 10 47
e 10 59
e 10 73
e 10 88
e 10 89
e 10 105
e 10 106
e 11 12
e 11 16
e 11 41
e 11 60
e 11 83
e 11 105
e 11 106
e 12 13
e 12 14
e 12 16
e 12 60
e 12 83
e 13 14
e 13 55
e 13 61
e 13 80
e 13 214
e 14 56
e 14 62
e 14 81
e 14 84
e 14 86
e 14 215
e 15 16
e 15 18
e 15 40
e 15 57
e 15 87
e 15 88
e 15 93
e 15 112
e 15 113
e 15 114
e 15 115
e 15 217
e 16 58
e 16 60
e 16 76
e 16 88
e 16 113
e 16 114
e 16 115
e 16 116
e 16 117
e 16 219
e 17 18
e 17 25
e 17 29
e 17 63
e 17 87
e 17 96
e 18 22
e 18 26
e 18 40
e 18 96
e 18 97
e 19 20
e 19 21
e 19 23
e 19 27
e 19 30
e 19 35
e 19 189
e 20 21
e 20 24
e 20 31
e 20 36
e 20 190
e 21 28
e 21 37
e 21 64
e 21 66
e 21 69
e 21 80
e 22 23
e 22 24
e 22 26
e 22 63
e 22 204
e 23 24
e 23 27
e 23 30
e 23 59
e 23 64
e 23 65
e 23 189
e 23 205
e 24 31
e 24 60
e 24 64
e 24 65
e 24 190
e 24 206
e 25 26
e 25 27
e 25 28
e 25 33
e 25 63
e 25 67
e 25 71
e 25 122
e 25 123
e 25 124
e 25 125
e 26 27
e 26 28
e 26 34
e 26 68
e 26 72
e 26 122
e 26 123
e 26 124
e 26 125
e 27 28
e 27 35
e 27 48
e 27 66
e 27 73
e 27 123
e 27 124
e 27 125
e 27 189
e 28 37
e 28 44
e 28 50
e 28 64
e 28 66
e 28 69
e 28 74
e 28 77
e 28 123
e 28 124
e 28 125
e 29 33
e 29 38
e 29 67
e 29 79
e 29 87
e 29 99
e 29 101
e 29 102
e 29 103
e 30 31
e 30 32
e 30 35
e 30 59
e 30 205
e 31 32
e 31 36
e 31 60
e 31 206
e 32 62
e 32 65
e 32 70
e 32 81
e 33 34
e 33 35
e 33 36
e 33 37
e 33 38
e 33 67
e 33 68
e 33 71
e 33 79
e 34 35
e 34 36
e 34 37
e 34 39
e 34 67
e 34 68
e 34 72
e 35 36
e 35 37
e 35 48
e 35 68
e 35 69
e 35 70
e 35 73
e 36 37
e 36 49
e 36 69
e 36 70
e 36 76
e 37 44
e 37 50
e 37 66
e 37 69
e 37 70
e 37 74
e 37 77
e 37 80
e 38 39
e 38 45
e 38 52
e 38 67
e 38 79
e 38 82
e 38 85
e 38 141
e 38 142
e 39 46
e 39 53
e 39 68
e 39 79
e 39 141
e 39 142
e 40 41
e 40 46
e 40 72
e 40 104
e 40 105
e 40 106
e 41 47
e 41 59
e 41 73
e 41 88
e 41 89
e 41 104
e 41 105
e 41 106
e 42 43
e 42 44
e 42 50
e 42 55
e 42 74
e 42 90
e 42 94
e 42 202
e 43 51
e 43 56
e 43 75
e 43 84
e 43 86
e 43 91
e 43 95
e 44 50
e 44 66
e 44 69
e 44 73
e 44 74
e 44 75
e 44 77
e 44 90
e 44 151
e 44 152
e 44 153
e 44 154
e 44 155
e 45 46
e 45 47
e 45 52
e 45 71
e 45 79
e 45 82
e 45 85
e 46 47
e 46 53
e 46 72
e 46 82
e 47 54
e 47 73
e 47 83
e 47 84
e 47 89
e 47 213
e 48 49
e 48 50
e 48 51
e 48 54
e 48 73
e 48 200
e 49 50
e 49 51
e 49 58
e 49 76
e 49 201
e 50 51
e 50 55
e 50 66
e 50 69
e 50 74
e 50 77
e 50 94
e 50 202
e 51 56
e 51 70
e 51 75
e 51 78
e 51 86
e 51 95
e 52 53
e 52 54
e 52 55
e 52 56
e 52 79
e 52 82
e 52 85
e 52 92
e 52 158
e 52 159
e 52 160
e 52 161
e 52 198
e 53 54
e 53 55
e 53 56
e 53 57
e 53 85
e 53 93
e 53 158
e 53 159
e 53 160
e 53 161
e 53 199
e 54 55
e 54 56
e 54 86
e 54 158
e 54 159
e 54 160
e 54 161
e 54 162
e 54 200
e 54 213
e 55 56
e 55 80
e 55 86
e 55 94
e 55 159
e 55 160
e 55 161
e 55 162
e 55 202
e 55 214
e 56 81
e 56 84
e 56 86
e 56 95
e 56 159
e 56 160
e 56 161
e 56 162
e 56 215
e 57 58
e 57 92
e 57 93
e 57 163
e 57 164
e 57 199
e 57 217
e 58 76
e 58 94
e 58 95
e 58 163
e 58 164
e 58 165
e 58 166
e 58 201
e 58 219
e 59 60
e 59 61
e 59 62
e 59 88
e 59 205
e 60 61
e 60 62
e 60 206
e 61 62
e 61 64
e 61 207
e 62 65
e 63 64
e 63 65
e 63 203
e 64 65
e 64 66
e 64 207
e 65 191
e 66 69
e 66 74
e 66 77
e 66 122
e 66 123
e 66 124
e 66 125
e 67 68
e 67 69
e 67 70
e 67 71
e 67 79
e 68 69
e 68 70
e 68 72
e 69 70
e 69 74
e 69 77
e 69 80
e 70 75
e 70 78
e 70 81
e 71 72
e 71 73
e 71 74
e 71 75
e 71 82
e 71 151
e 71 152
e 71 155
e 72 73
e 72 74
e 72 75
e 72 151
e 72 152
e 72 153
e 72 155
e 73 74
e 73 75
e 73 89
e 73 152
e 73 153
e 73 154
e 73 155
e 74 75
e 74 77
e 74 90
e 74 152
e 74 153
e 74 154
e 74 155
e 75 78
e 75 84
e 75 91
e 75 152
e 75 153
e 75 154
e 75 155
e 76 77
e 76 78
e 76 219
e 77 78
e 77 90
e 77 94
e 77 220
e 78 91
e 78 95
e 78 221
e 79 80
e 79 81
e 79 82
e 79 85
e 79 141
e 79 143
e 79 144
e 80 81
e 80 142
e 80 143
e 80 144
e 80 214
e 81 84
e 81 86
e 81 142
e 81 143
e 81 144
e 81 215
e 82 83
e 82 84
e 82 85
e 83 84
e 84 86
e 84 91
e 84 215
e 85 86
e 85 92
e 85 158
e 85 162
e 85 198
e 86 95
e 86 158
e 86 159
e 86 160
e 86 161
e 86 162
e 86 215
e 87 88
e 87 92
e 87 112
e 87 113
e 87 116
e 87 117
e 87 216
e 88 89
e 88 112
e 88 113
e 88 114
e 88 115
e 88 116
e 88 117
e 88 218
e 89 90
e 89 91
e 89 218
e 90 91
e 90 94
e 90 220
e 91 95
e 91 221
e 92 93
e 92 94
e 92 95
e 92 163
e 92 165
e 92 166
e 92 198
e 92 216
e 93 94
e 93 95
e 93 163
e 93 165
e 93 166
e 93 199
e 93 217
e 94 95
e 94 164
e 94 165
e 94 166
e 94 202
e 94 220
e 95 164
e 95 165
e 95 166
e 95 221
e 96 99
e 96 131
e 97 98
e 97 100
e 97 101
e 97 105
e 97 106
e 97 109
e 97 114
e 97 120
e 98 111
e 98 115
e 98 121
e 98 129
e 98 135
e 98 188
e 99 101
e 99 102
e 99 103
e 99 141
e 100 101
e 100 102
e 100 103
e 100 105
e 100 106
e 100 109
e 100 114
e 100 138
e 100 142
e 100 146
e 101 102
e 101 103
e 101 105
e 101 106
e 101 109
e 101 114
e 101 138
e 101 142
e 101 146
e 102 103
e 102 108
e 102 116
e 102 139
e 102 143
e 102 147
e 102 186
e 102 192
e 103 110
e 103 117
e 103 137
e 103 187
e 103 193
e 104 106
e 104 112
e 104 151
e 105 106
e 105 109
e 105 114
e 105 153
e 105 195
e 106 109
e 106 114
e 106 153
e 106 195
e 107 108
e 107 113
e 107 156
e 107 185
e 108 116
e 108 139
e 108 160
e 108 186
e 109 110
e 109 111
e 109 114
e 109 153
e 109 169
e 109 172
e 109 209
e 110 111
e 110 117
e 110 124
e 110 154
e 110 171
e 110 181
e 110 187
e 110 211
e 111 115
e 111 173
e 111 188
e 111 212
e 112 116
e 112 117
e 112 130
e 113 114
e 113 115
e 113 116
e 113 117
e 113 132
e 113 145
e 113 185
e 114 115
e 114 116
e 114 117
e 114 146
e 114 182
e 115 116
e 115 117
e 115 135
e 115 164
e 115 166
e 115 184
e 115 188
e 116 117
e 116 133
e 116 147
e 116 177
e 116 186
e 117 134
e 117 165
e 117 178
e 117 183
e 117 187
e 118 119
e 118 123
e 118 127
e 118 133
e 118 148
e 119 124
e 119 128
e 119 134
e 119 137
e 119 149
e 119 154
e 119 196
e 120 121
e 120 138
e 120 159
e 121 129
e 121 135
e 121 140
e 121 161
e 121 164
e 121 166
e 122 125
e 122 130
e 122 151
e 123 124
e 123 125
e 123 127
e 123 133
e 123 170
e 123 180
e 123 210
e 124 125
e 124 128
e 124 134
e 124 154
e 124 171
e 124 181
e 124 211
e 125 126
e 125 132
e 125 152
e 125 155
e 125 179
e 125 208
e 126 127
e 126 128
e 126 129
e 126 132
e 126 174
e 126 179
e 127 128
e 127 129
e 127 133
e 127 143
e 127 160
e 127 180
e 128 129
e 128 134
e 128 162
e 128 181
e 128 183
e 129 135
e 129 144
e 129 161
e 129 176
e 129 184
e 130 131
e 131 132
e 131 163
e 132 133
e 132 134
e 132 135
e 132 145
e 133 134
e 133 135
e 133 147
e 133 177
e 134 135
e 134 165
e 134 178
e 134 183
e 135 164
e 135 166
e 135 184
e 136 137
e 136 145
e 136 152
e 136 155
e 137 149
e 137 154
e 137 193
e 137 196
e 138 139
e 138 140
e 138 142
e 138 146
e 138 159
e 139 140
e 139 143
e 139 147
e 139 160
e 139 192
e 140 144
e 140 161
e 140 164
e 140 166
e 140 194
e 141 142
e 141 158
e 142 143
e 142 144
e 142 146
e 142 159
e 142 175
e 142 182
e 143 144
e 143 147
e 143 160
e 143 180
e 143 192
e 144 161
e 144 176
e 144 184
e 144 194
e 145 146
e 145 147
e 146 147
e 146 182
e 147 177
e 147 192
e 148 149
e 148 150
e 148 170
e 148 177
e 149 150
e 149 154
e 149 157
e 149 171
e 149 178
e 149 196
e 150 173
e 150 176
e 150 197
e 151 152
e 151 153
e 151 154
e 152 153
e 152 154
e 152 155
e 152 179
e 152 208
e 153 154
e 153 155
e 153 169
e 153 172
e 153 195
e 153 209
e 154 155
e 154 171
e 154 181
e 154 196
e 154 211
e 155 179
e 155 208
e 156 157
e 156 174
e 157 162
e 157 165
e 157 171
e 157 178
e 158 162
e 158 163
e 159 160
e 159 161
e 159 162
e 159 175
e 159 182
e 160 161
e 160 162
e 160 180
e 161 162
e 161 164
e 161 166
e 161 176
e 161 184
e 162 165
e 162 181
e 162 183
e 163 164
e 164 165
e 164 166
e 164 184
e 165 166
e 165 178
e 165 183
e 166 184
e 167 168
e 167 169
e 167 170
e 167 171
e 168 172
e 168 173
e 169 170
e 169 171
e 169 172
e 169 173
e 169 175
e 169 209
e 170 171
e 170 172
e 170 173
e 170 177
e 170 180
e 170 210
e 171 172
e 171 173
e 171 178
e 171 181
e 171 211
e 172 173
e 172 175
e 172 209
e 173 176
e 173 212
e 174 175
e 174 176
e 174 179
e 175 176
e 175 182
e 176 184
e 177 178
e 178 183
e 179 180
e 179 181
e 179 208
e 180 181
e 180 210
e 181 183
e 181 211
e 182 183
e 182 184
e 183 184
e 185 186
e 185 187
e 185 188
e 186 187
e 186 188
e 187 188
e 189 190
e 189 191
e 190 191
e 192 193
e 192 194
e 193 194
e 195 196
e 195 197
e 196 197
e 198 199
e 199 200
e 200 201
e 200 202
e 201 202
e 203 204
e 204 205
e 205 206
e 205 207
e 206 207
e 208 209
e 208 210
e 208 211
e 208 212
e 209 210
e 209 211
e 209 212
e 210 211
e 210 212
e 211 212
e 213 214
e 213 215
e 214 215
e 216 217
e 217 218
e 218 219
e 218 220
e 218 221
e 219 220
e 219 221
e 220 221
w 1 137
w 2 144
w 3 218
w 4 137
w 5 236
w 6 263
w 7 93
w 8 143
w 9 362
w 10 83
w 11 167
w 12 167
w 13 227
w 14 604
w 15 263
w 16 394
w 17 137
w 18 362
w 19 155
w 20 361
w 21 482
w 22 500
w 23 158
w 24 341
w 25 362
w 26 137
w 27 142
w 28 64
w 29 126
w 30 207
w 31 453
w 32 338
w 33 439
w 34 60
w 35 372
w 36 91
w 37 35
w 38 161
w 39 212
w 40 137
w 41 249
w 42 619
w 43 380
w 44 72
w 45 312
w 46 550
w 47 136
w 48 263
w 49 500
w 50 12
w 51 222
w 52 26
w 53 236
w 54 263
w 55 99
w 56 113
w 57 236
w 58 27
w 59 161
w 60 176
w 61 484
w 62 176
w 63 500
w 64 15
w 65 484
w 66 293
w 67 9
w 68 490
w 69 2
w 70 497
w 71 187
w 72 312
w 73 221
w 74 104
w 75 100
w 76 406
w 77 414
w 78 178
w 79 126
w 80 335
w 81 164
w 82 137
w 83 832
w 84 30
w 85 236
w 86 23
w 87 236
w 88 105
w 89 309
w 90 202
w 91 488
w 92 177
w 93 85
w 94 212
w 95 260
w 96 499
w 97 159
w 98 340
w 99 500
w 100 126
w 101 78
w 102 87
w 103 208
w 104 499
w 105 386
w 106 113
w 107 500
w 108 500
w 109 115
w 110 368
w 111 515
w 112 500
w 113 226
w 114 20
w 115 94
w 116 74
w 117 83
w 118 694
w 119 305
w 120 840
w 121 158
w 122 500
w 123 167
w 124 125
w 125 206
w 126 293
w 127 55
w 128 397
w 129 253
w 130 499
w 131 500
w 132 500
w 133 82
w 134 170
w 135 247
w 136 726
w 137 273
w 138 104
w 139 332
w 140 563
w 141 500
w 142 126
w 143 177
w 144 196
w 145 273
w 146 565
w 147 161
w 148 305
w 149 128
w 150 565
w 151 499
w 152 199
w 153 193
w 154 33
w 155 73
w 156 500
w 157 500
w 158 499
w 159 55
w 160 167
w 161 36
w 162 240
w 163 499
w 164 235
w 165 259
w 166 5
w 167 500
w 168 500
w 169 434
w 170 12
w 171 52
w 172 161
w 173 338
w 174 500
w 175 403
w 176 96
w 177 681
w 178 318
w 179 206
w 180 598
w 181 194
w 182 414
w 183 167
w 184 417
w 185 273
w 186 338
w 187 338
w 188 49
w 189 406
w 190 296
w 191 296
w 192 241
w 193 517
w 194 240
w 195 306
w 196 258
w 197 434
w 198 558
w 199 441
w 200 473
w 201 471
w 202 55
w 203 500
w 204 500
w 205 472
w 206 27
w 207 500
w 208 313
w 209 95
w 210 221
w 211 224
w 212 146
w 213 600
w 214 335
w 215 63
w 216 585
w 217 414
w 218 585
w 219 170
w 220 170
w 221 73
n 1 C0182
n 2 C0186
n 3 C0188
n 4 C0196
n 5 C0198
n 6 C0200
n 7 C0202
n 8 C0204
n 9 C0214
n 10 C0218
n 11 C0220
n 12 C0292
n 13 C0294
n 14 C0296
n 15 C0306
n 16 C0310
n 17 C0340
n 18 C0342
n 19 C0362
n 20 C0364
n 21 C0366
n 22 C0414
n 23 C0416
n 24 C0418
n 25 C0430
n 26 C0432
n 27 C0434
n 28 C0438
n 29 C0502
n 30 C0578
n 31 C0580
n 32 C0584
n 33 C0592
n 34 C0594
n 35 C0596
n 36 C0598
n 37 C0600
n 38 C0610
n 39 C0612
n 40 C0666
n 41 C0668
n 42 C0726
n 43 C0728
n 44 C0762
n 45 C0772
n 46 C0774
n 47 C0776
n 48 C0920
n 49 C0922
n 50 C0924
n 51 C0926
n 52 C0934
n 53 C0936
n 54 C0938
n 55 C0942
n 56 C0944
n 57 C0954
n 58 C0958
n 59 C0992
n 60 C0994
n 61 C0996
n 62 C0998
n 63 C1006
n 64 C1014
n 65 C1016
n 66 C1176
n 67 C1186
n 68 C1188
n 69 C1194
n 70 C1196
n 71 C1204
n 72 C1206
n 73 C1208
n 74 C1212
n 75 C1214
n 76 C1282
n 77 C1284
n 78 C1286
n 79 C1348
n 80 C1356
n 81 C1358
n 82 C1366
n 83 C1372
n 84 C1376
n 85 C1384
n 86 C1394
n 87 C1474
n 88 C1478
n 89 C1532
n 90 C1536
n 91 C1538
n 92 C1546
n 93 C1548
n 94 C1554
n 95 C1556
n 96 C0341
n 97 C0183
n 98 C0189
n 99 C0503
n 100 C0201
n 101 C0507
n 102 C0509
n 103 C0511
n 104 C0663
n 105 C0219
n 106 C0669
n 107 C0829
n 108 C0833
n 109 C1155
n 110 C1159
n 111 C1161
n 112 C1473
n 113 C0307
n 114 C0309
n 115 C0315
n 116 C1481
n 117 C1483
n 118 C0689
n 119 C0691
n 120 C0399
n 121 C0405
n 122 C1167
n 123 C0437
n 124 C0439
n 125 C1171
n 126 C1333
n 127 C1337
n 128 C1339
n 129 C1341
n 130 C1491
n 131 C1493
n 132 C0469
n 133 C0473
n 134 C0475
n 135 C0477
n 136 C0703
n 137 C0709
n 138 C0561
n 139 C0563
n 140 C0567
n 141 C0611
n 142 C0615
n 143 C1355
n 144 C1359
n 145 C0631
n 146 C0633
n 147 C0635
n 148 C1049
n 149 C1051
n 150 C1053
n 151 C0753
n 152 C0757
n 153 C0759
n 154 C0763
n 155 C1207
n 156 C0901
n 157 C0907
n 158 C1385
n 159 C0939
n 160 C0941
n 161 C0945
n 162 C1393
n 163 C0953
n 164 C0963
n 165 C1555
n 166 C1557
n 167 C1079
n 168 C1241
n 169 C1083
n 170 C1085
n 171 C1087
n 172 C1245
n 173 C1251
n 174 C1099
n 175 C1101
n 176 C1107
n 177 C1571
n 178 C1573
n 179 C1423
n 180 C1427
n 181 C1429
n 182 C1605
n 183 C1609
n 184 C1611
n 185 C0325
n 186 C0329
n 187 C0331
n 188 C0333
n 189 C0488
n 190 C0490
n 191 C0494
n 192 C0653
n 193 C0655
n 194 C0657
n 195 C0813
n 196 C0817
n 197 C0819
n 198 C0970
n 199 C0972
n 200 C0974
n 201 C0976
n 202 C0978
n 203 C1132
n 204 C1134
n 205 C1136
n 206 C1138
n 207 C1140
n 208 C1297
n 209 C1299
n 210 C1301
n 211 C1303
n 212 C1305
n 213 C1460
n 214 C1464
n 215 C1466
n 216 C1618
n 217 C1620
n 218 C1622
n 219 C1624
n 220 C1626
n 221 C1628
o 1 176
o 2 178
o 3 179
o 4 182
o 5 183
o 6 184
o 7 185
o 8 186
o 9 190
o 10 192
o 11 193
o 12 225
o 13 226
o 14 227
o 15 231
o 16 233
o 17 238
o 18 239
o 19 248
o 20 249
o 21 250
o 22 271
o 23 272
o 24 273
o 25 278
o 26 279
o 27 280
o 28 282
o 29 302
o 30 336
o 31 337
o 32 339
o 33 342
o 34 343
o 35 344
o 36 345
o 37 346
o 38 350
o 39 351
o 40 367
o 41 368
o 42 394
o 43 395
o 44 410
o 45 414
o 46 415
o 47 416
o 48 472
o 49 473
o 50 474
o 51 475
o 52 478
o 53 479
o 54 480
o 55 482
o 56 483
o 57 487
o 58 489
o 59 496
o 60 497
o 61 498
o 62 499
o 63 502
o 64 506
o 65 507
o 66 570
o 67 574
o 68 575
o 69 578
o 70 579
o 71 582
o 72 583
o 73 584
o 74 586
o 75 587
o 76 617
o 77 618
o 78 619
o 79 638
o 80 642
o 81 643
o 82 646
o 83 649
o 84 651
o 85 654
o 86 659
o 87 686
o 88 688
o 89 712
o 90 714
o 91 715
o 92 718
o 93 719
o 94 722
o 95 723
o 96 877
o 97 879
o 98 882
o 99 892
o 100 894
o 101 899
o 102 900
o 103 901
o 104 907
o 105 910
o 106 915
o 107 930
o 108 932
o 109 961
o 110 963
o 111 964
o 112 985
o 113 987
o 114 988
o 115 991
o 116 994
o 117 995
o 118 1027
o 119 1028
o 120 1038
o 121 1041
o 122 1067
o 123 1071
o 124 1072
o 125 1074
o 126 1091
o 127 1093
o 128 1094
o 129 1095
o 130 1101
o 131 1102
o 132 1103
o 133 1105
o 134 1106
o 135 1107
o 136 1125
o 137 1128
o 138 1138
o 139 1139
o 140 1141
o 141 1181
o 142 1187
o 143 1193
o 144 1195
o 145 1203
o 146 1204
o 147 1205
o 148 1245
o 149 1246
o 150 1247
o 151 1250
o 152 1255
o 153 1256
o 154 1258
o 155 1260
o 156 1308
o 157 1311
o 158 1342
o 159 1344
o 160 1345
o 161 1347
o 162 1351
o 163 1356
o 164 1365
o 165 1369
o 166 1370
o 167 1373
o 168 1376
o 169 1378
o 170 1379
o 171 1380
o 172 1383
o 173 1386
o 174 1394
o 175 1395
o 176 1398
o 177 1418
o 178 1419
o 179 1433
o 180 1435
o 181 1436
o 182 1469
o 183 1471
o 184 1472
o 185 1481
o 186 1485
o 187 1487
o 188 1489
o 189 1499
o 190 1501
o 191 1505
o 192 1519
o 193 1521
o 194 1523
o 195 1535
o 196 1539
o 197 1541
o 198 1548
o 199 1550
o 200 1552
o 201 1554
o 202 1556
o 203 1566
o 204 1568
o 205 1570
o 206 1572
o 207 1574
o 208 1586
o 209 1588
o 210 1590
o 211 1592
o 212 1594
o 213 1604
o 214 1608
o 215 1610
o 216 1618
o 217 1620
o 218 1622
o 219 1624
o 220 1626
o 221 1628
